DIMENSION :15
NODE_COORD_SECTION
1 46.08260050345106 -70.1230517481719
2 47.89384419891391 98.51816711853155
3 1.8162872221144823 92.25553809678576
4 -39.64169366786656 -6.8456601310146254
5 21.252341497752653 30.387227052903427
6 83.31678965329337 -41.98211315313014
7 55.156258252103356 40.838966996313246
8 72.18144809259351 -94.34991187865572
9 -44.69776467776674 45.486547746791445
10 -73.12193654802431 8.264441959307376
11 -59.80047509128703 39.757844159168826
12 -52.349147748577266 5.05720432349861
13 -34.88335389759314 94.58950933653185
14 -62.87629293134201 -17.051280714902916
15 -14.747756848790289 -5.645834821749446
EOF
